p cnf 91 377
7 9 -47 -48 55 64 0
10 20 21 22 -69 88 0
10 20 21 -69 -72 88 0
3 19 23 51 68 0
10 12 26 -27 -28 0
10 -27 -28 -33 34 0
12 13 -19 -31 -79 0
13 -31 58 -78 79 0
-15 29 -30 -31 57 0
-42 45 46 60 83 0
-49 -51 68 -89 -91 0
3 19 23 56 59 0
11 12 -27 -28 57 0
-14 -31 57 78 79 0
1 2 24 56 0
-1 -24 -59 62 0
2 -61 65 74 0
-2 -5 -65 74 0
3 24 -32 59 0
-3 13 -16 -19 0
-3 13 -16 -68 0
4 19 -51 -91 0
-4 5 -78 -84 0
-4 52 -63 -84 0
-5 52 -63 82 0
-6 37 52 82 0
7 9 40 45 0
-7 -8 -45 -83 0
-7 -8 -46 -83 0
-9 40 43 87 0
-11 -58 -76 -80 0
12 14 78 -79 0
-13 66 86 90 0
-14 -15 58 76 0
15 -29 30 73 0
-16 -19 -89 91 0
-16 -23 -89 91 0
-17 -18 22 71 0
20 22 41 53 0
20 -38 41 53 0
-20 -21 69 -77 0
21 22 69 70 0
23 25 75 -80 0
-25 -27 -33 -34 0
-35 -61 -74 82 0
36 37 62 -63 0
-38 53 -54 -70 0
42 46 -60 -87 0
46 48 83 -87 0
50 66 67 -89 0
-53 -69 70 -72 0
-3 13 -51 -68 0
-4 -61 -78 84 0
-5 62 82 84 0
-8 -45 48 -83 0
12 26 -31 -34 0
12 -31 58 -73 0
13 78 79 84 0
-15 29 73 80 0
19 23 47 64 0
-19 -51 67 -89 0
22 69 -77 88 0
23 -65 74 -75 0
-23 -27 -28 -34 0
24 25 56 59 0
26 -27 34 -57 0
-31 -73 78 -79 0
-68 -86 -89 91 0
1 2 21 0
1 7 8 0
1 17 21 0
1 24 -35 0
1 42 -83 0
1 56 -62 0
-2 4 61 0
-2 -5 35 0
-2 -74 -82 0
3 32 56 0
3 -50 -67 0
-3 -23 -40 0
-3 66 -86 0
4 16 49 0
4 -50 -91 0
4 -63 78 0
-5 61 62 0
6 -36 -37 0
7 42 -55 0
7 -53 55 0
-7 -42 -83 0
8 41 -46 0
-8 -9 -46 0
-8 46 -64 0
-9 -40 87 0
-10 27 -34 0
-12 -78 -79 0
13 49 85 0
-16 -49 -50 0
17 18 39 0
17 -44 77 0
-17 -19 -40 0
-17 -41 -72 0
18 42 69 0
-18 -23 -38 0
-18 -47 54 0
-18 -54 -64 0
19 38 39 0
19 -74 -75 0
19 -76 -80 0
19 81 85 0
-19 -24 -27 0
-19 30 36 0
-19 -39 -44 0
-19 -47 81 0
-19 67 91 0
-19 81 85 0
-19 85 -86 0
20 -38 -70 0
20 -70 71 0
20 71 -72 0
-20 38 72 0
22 46 -69 0
-22 -41 -53 0
23 27 34 0
23 -30 -33 0
-23 25 -56 0
-23 -44 71 0
-23 -48 -64 0
-23 51 67 0
-23 -79 84 0
24 -33 -59 0
-24 -29 37 0
-24 -33 82 0
25 65 -74 0
25 76 80 0
-26 28 31 0
-26 28 57 0
29 30 33 0
29 -33 -36 0
29 58 -73 0
-29 -30 58 0
30 -35 -56 0
32 -56 -61 0
-32 -61 -62 0
-33 56 -74 0
36 -37 63 0
38 53 -54 0
-38 41 -54 0
40 -43 -87 0
-40 43 45 0
-40 -43 44 0
42 83 -87 0
44 -69 -77 0
-45 -48 55 0
-46 47 -64 0
48 83 -87 0
-49 51 -91 0
50 -66 86 0
-54 -70 71 0
-54 -71 72 0
60 83 88 0
-63 82 -84 0
-66 -67 89 0
67 -68 91 0
70 77 -88 0
72 -77 -88 0
-81 -85 90 0
1 10 0
1 21 0
1 -21 0
1 -35 0
1 -62 0
1 -87 0
1 88 0
-1 -2 0
-1 -12 0
-1 -15 0
-1 24 0
-1 30 0
-1 32 0
-1 -70 0
-1 -88 0
-1 -90 0
2 5 0
2 6 0
2 -56 0
2 59 0
2 -74 0
-2 -6 0
-2 37 0
3 7 0
3 16 0
3 26 0
3 -51 0
3 67 0
3 76 0
3 89 0
-3 32 0
-3 50 0
-3 51 0
-3 61 0
-3 68 0
4 38 0
4 40 0
4 -52 0
4 68 0
4 -68 0
4 -78 0
4 -82 0
4 84 0
4 -84 0
4 89 0
-4 52 0
-4 -63 0
5 -52 0
5 63 0
5 -82 0
-5 -30 0
-5 63 0
-5 -78 0
6 35 0
6 -62 0
6 -82 0
-6 61 0
-6 74 0
7 8 0
7 60 0
7 64 0
-7 -46 0
-7 87 0
8 -13 0
8 39 0
8 41 0
8 -46 0
8 -70 0
-8 -10 0
-8 42 0
-8 43 0
-8 -55 0
9 46 0
9 55 0
-9 -45 0
-9 -47 0
-9 -60 0
10 12 0
10 22 0
10 -56 0
10 -57 0
10 -70 0
10 -72 0
10 81 0
10 83 0
10 -86 0
-10 -11 0
-10 -12 0
-10 15 0
-10 24 0
-10 28 0
-10 -30 0
-10 -83 0
11 12 0
11 -12 0
11 14 0
11 15 0
11 26 0
11 -27 0
11 28 0
11 -28 0
11 36 0
11 76 0
11 -76 0
-11 -14 0
-11 -29 0
-11 -57 0
-11 80 0
12 -78 0
-12 31 0
-12 -58 0
-12 73 0
-12 79 0
13 58 0
13 85 0
13 89 0
13 90 0
13 -90 0
13 91 0
-13 26 0
-13 -67 0
-13 68 0
-13 -68 0
14 30 0
14 31 0
14 -57 0
14 -58 0
14 73 0
-14 73 0
15 -19 0
15 25 0
15 31 0
15 -57 0
15 -58 0
-15 -74 0
16 23 0
16 50 0
-16 -23 0
-16 -49 0
-16 68 0
-16 -68 0
-16 85 0
17 23 0
17 40 0
17 -77 0
-17 -44 0
-17 -58 0
-17 77 0
18 21 0
18 41 0
18 47 0
18 54 0
18 64 0
-18 -53 0
-18 -55 0
-18 -60 0
-18 81 0
19 21 0
19 -30 0
19 32 0
19 34 0
19 36 0
19 42 0
19 54 0
19 81 0
19 -91 0
-19 -31 0
-19 -34 0
-19 -38 0
-19 -43 0
-19 -50 0
-19 -59 0
-19 -60 0
-19 -69 0
-19 -76 0
-19 79 0
-19 80 0
-19 -84 0
-19 -85 0
-19 86 0
-19 89 0
20 38 0
20 -70 0
-20 -22 0
-20 77 0
21 -33 0
21 -42 0
21 -72 0
21 83 0
21 -88 0
-21 -69 0
-21 -70 0
-21 -72 0
-21 83 0
-21 -88 0
22 -44 0
22 -53 0
22 54 0
22 -71 0
-22 41 0
-22 53 0
-22 70 0
-22 71 0
-22 -71 0
23 26 0
23 42 0
23 43 0
23 48 0
23 -50 0
23 -51 0
23 60 0
